SECTION Graph
Nodes 437
Edges 838
E 1 15 9
E 1 364 3
E 1 377 3
E 2 16 9
E 2 395 3
E 3 374 12
E 3 395 1
E 4 5 10
E 4 325 12
E 4 339 3
E 4 343 3
E 5 340 12
E 5 350 3
E 6 350 1
E 6 357 6
E 7 8 1
E 7 212 8
E 7 223 4
E 7 240 1
E 8 226 4
E 8 243 1
E 8 253 3
E 9 276 1
E 9 286 2
E 10 285 1
E 10 286 1
E 11 12 10
E 11 384 9
E 11 396 2
E 12 404 2
E 13 51 2
E 13 378 2
E 13 385 1
E 13 390 3
E 14 390 10
E 14 400 2
E 14 401 1
E 15 16 10
E 15 347 7
E 15 349 3
E 16 18 7
E 16 374 1
E 17 19 4
E 17 344 2
E 17 347 3
E 17 349 7
E 18 20 4
E 18 347 10
E 18 357 1
E 19 337 6
E 19 342 2
E 19 345 3
E 20 345 10
E 20 350 2
E 21 22 10
E 21 322 1
E 21 323 1
E 21 325 1
E 22 338 1
E 22 340 1
E 23 292 2
E 23 293 2
E 23 298 1
E 23 316 12
E 24 26 2
E 24 298 10
E 24 334 12
E 25 26 10
E 25 27 1
E 25 293 1
E 25 298 2
E 26 28 1
E 27 28 10
E 27 273 7
E 27 291 1
E 28 299 7
E 29 247 2
E 29 253 1
E 29 259 1
E 29 262 2
E 30 264 10
E 30 285 3
E 30 294 1
E 31 32 10
E 31 33 1
E 31 214 2
E 31 241 6
E 32 34 1
E 32 276 6
E 33 34 10
E 33 213 2
E 33 215 1
E 34 36 1
E 35 202 1
E 35 210 1
E 36 215 10
E 37 105 1
E 37 106 6
E 38 106 5
E 39 106 1
E 40 105 6
E 40 106 1
E 41 85 1
E 41 348 1
E 41 351 6
E 42 86 1
E 42 358 6
E 43 44 1
E 43 363 4
E 43 368 1
E 43 376 2
E 44 51 2
E 44 365 4
E 44 378 2
E 45 46 1
E 45 372 4
E 45 381 1
E 45 387 2
E 46 375 4
E 46 388 2
E 46 389 2
E 47 49 6
E 47 87 1
E 47 90 1
E 47 331 20
E 48 88 1
E 48 362 2
E 49 85 1
E 49 335 14
E 50 86 1
E 50 91 6
E 50 348 2
E 51 367 4
E 51 381 1
E 52 87 1
E 52 93 1
E 52 336 20
E 52 356 4
E 53 88 1
E 53 98 2
E 53 380 4
E 54 277 1
E 54 283 1
E 54 307 14
E 55 56 1
E 55 287 12
E 55 302 4
E 55 312 2
E 56 303 4
E 56 311 1
E 56 314 2
E 57 258 12
E 57 277 6
E 57 295 1
E 57 296 1
E 58 99 1
E 58 301 1
E 58 328 17
E 59 60 1
E 59 131 1
E 59 135 1
E 60 136 1
E 60 139 11
E 61 65 13
E 61 142 1
E 61 157 13
E 62 63 1
E 62 122 1
E 63 123 1
E 63 131 13
E 64 120 14
E 64 128 1
E 64 133 1
E 65 132 1
E 65 133 1
E 66 71 1
E 66 162 1
E 66 163 2
E 67 176 1
E 67 177 1
E 67 187 2
E 68 143 1
E 68 144 1
E 68 149 1
E 68 151 10
E 69 148 11
E 69 152 1
E 69 156 1
E 69 157 1
E 70 155 1
E 70 156 1
E 70 159 1
E 70 175 43
E 71 73 1
E 71 161 1
E 72 74 1
E 72 173 1
E 72 176 1
E 72 177 1
E 73 147 43
E 73 160 1
E 74 155 43
E 74 172 1
E 74 175 1
E 75 83 1
E 75 107 10
E 76 107 1
E 76 108 1
E 76 111 2
E 77 79 5
E 77 109 1
E 77 116 10
E 78 109 10
E 78 116 1
E 78 118 1
E 78 124 14
E 79 80 10
E 79 81 5
E 80 82 5
E 80 114 1
E 80 116 5
E 81 82 10
E 81 83 1
E 82 84 1
E 82 110 1
E 83 84 10
E 84 107 1
E 84 108 1
E 85 90 6
E 86 92 6
E 87 333 20
E 87 352 1
E 88 104 2
E 89 203 216
E 90 351 1
E 90 352 1
E 91 92 1
E 91 102 1
E 91 354 2
E 92 358 1
E 92 359 1
E 93 94 1
E 93 352 1
E 93 361 4
E 94 95 1
E 94 100 1
E 94 363 4
E 95 101 1
E 95 360 2
E 95 365 4
E 96 97 1
E 96 359 1
E 96 360 1
E 96 370 4
E 97 98 1
E 97 103 1
E 97 372 4
E 98 104 1
E 98 375 4
E 99 295 1
E 99 300 1
E 100 101 1
E 100 351 1
E 100 352 1
E 101 102 2
E 101 354 1
E 102 359 1
E 102 360 1
E 103 104 1
E 103 358 1
E 103 359 1
E 104 362 1
E 105 111 31
E 108 110 1
E 108 112 2
E 109 121 14
E 110 113 2
E 110 114 5
E 111 112 1
E 112 113 1
E 113 115 5
E 114 115 2
E 114 117 5
E 115 119 5
E 116 117 1
E 117 118 1
E 117 119 2
E 118 120 2
E 118 126 14
E 119 120 1
E 121 122 1
E 121 124 10
E 122 123 1
E 122 125 10
E 123 127 10
E 123 134 13
E 124 125 1
E 124 126 1
E 125 127 1
E 125 130 2
E 126 128 1
E 126 129 2
E 127 129 1
E 127 137 13
E 128 130 1
E 129 132 1
E 129 141 14
E 130 132 1
E 130 133 1
E 131 134 1
E 132 142 13
E 134 135 1
E 134 137 10
E 135 136 1
E 135 138 10
E 136 140 10
E 136 144 11
E 137 138 1
E 137 142 2
E 138 140 1
E 138 141 1
E 139 143 1
E 139 144 1
E 140 145 1
E 140 150 11
E 141 145 1
E 141 146 1
E 142 146 1
E 143 147 1
E 144 150 10
E 145 148 1
E 145 152 11
E 146 148 1
E 147 149 1
E 149 153 10
E 149 160 43
E 150 151 1
E 150 152 1
E 151 153 1
E 151 154 1
E 152 154 1
E 153 155 1
E 153 172 43
E 154 155 1
E 154 156 1
E 156 158 1
E 157 158 1
E 158 159 1
E 159 191 47
E 160 161 1
E 160 172 10
E 161 162 1
E 161 173 10
E 162 165 2
E 162 170 5
E 163 164 1
E 163 165 1
E 164 166 1
E 164 182 11
E 165 168 2
E 165 179 10
E 166 167 1
E 166 168 1
E 167 169 1
E 167 178 8
E 168 169 1
E 168 185 10
E 169 181 8
E 169 188 10
E 170 171 1
E 170 200 13
E 171 174 4
E 171 205 13
E 172 173 1
E 173 174 1
E 174 176 1
E 174 179 2
E 175 177 1
E 176 183 2
E 178 180 1
E 178 181 1
E 179 182 1
E 179 183 1
E 180 184 1
E 180 192 3
E 181 184 1
E 181 200 5
E 182 185 1
E 182 186 1
E 183 186 1
E 183 187 1
E 184 199 4
E 184 204 5
E 185 188 1
E 185 189 1
E 186 189 1
E 186 190 1
E 187 190 1
E 187 191 1
E 188 193 1
E 188 211 6
E 189 193 1
E 189 194 1
E 190 194 1
E 190 195 1
E 191 195 1
E 191 202 3
E 192 196 1
E 192 229 11
E 193 197 1
E 193 220 8
E 194 197 1
E 194 198 1
E 195 198 1
E 195 206 3
E 196 199 1
E 196 203 2
E 197 201 1
E 197 223 8
E 198 201 1
E 198 209 3
E 199 207 2
E 199 216 5
E 200 204 1
E 200 205 1
E 201 212 3
E 201 247 14
E 201 252 15
E 202 206 1
E 203 207 1
E 203 224 7
E 204 208 1
E 204 216 4
E 205 208 1
E 205 217 4
E 206 209 1
E 206 210 1
E 207 221 5
E 207 228 7
E 208 218 4
E 208 219 4
E 209 212 1
E 209 213 1
E 210 213 1
E 210 215 2
E 211 217 2
E 211 233 7
E 212 214 1
E 213 214 1
E 214 233 6
E 216 218 1
E 216 221 2
E 217 219 1
E 217 220 1
E 218 225 2
E 218 231 4
E 219 222 1
E 219 229 3
E 220 222 1
E 220 223 1
E 221 225 1
E 221 245 7
E 222 226 1
E 222 232 3
E 223 226 1
E 224 227 1
E 224 228 1
E 225 238 4
E 225 251 7
E 226 236 3
E 227 230 1
E 227 234 2
E 228 230 1
E 228 245 5
E 229 231 1
E 229 232 1
E 230 237 2
E 230 250 5
E 231 235 1
E 231 238 2
E 232 235 1
E 232 236 1
E 233 240 2
E 233 241 2
E 234 237 1
E 234 277 12
E 235 239 1
E 235 242 2
E 236 239 1
E 236 253 4
E 237 258 5
E 237 283 13
E 238 242 1
E 238 265 7
E 239 246 2
E 239 247 2
E 240 243 1
E 240 244 1
E 241 249 2
E 241 276 10
E 242 246 1
E 242 269 7
E 243 248 1
E 243 257 3
E 244 248 1
E 244 249 1
E 245 250 1
E 245 251 1
E 246 252 1
E 246 272 7
E 247 256 2
E 248 254 1
E 248 260 3
E 249 254 1
E 249 282 10
E 250 255 1
E 250 258 2
E 251 255 1
E 251 265 4
E 252 256 1
E 253 257 1
E 254 264 3
E 254 285 10
E 255 261 2
E 255 268 4
E 256 262 2
E 256 279 7
E 257 259 1
E 257 260 1
E 258 261 1
E 259 263 1
E 259 266 2
E 260 263 1
E 260 264 1
E 261 274 4
E 261 296 12
E 262 266 1
E 262 284 7
E 263 267 1
E 263 270 2
E 264 267 1
E 265 268 1
E 265 269 1
E 266 270 1
E 266 289 7
E 267 273 2
E 267 294 10
E 268 271 1
E 268 274 2
E 269 271 1
E 269 272 1
E 270 273 1
E 270 291 7
E 271 275 1
E 271 278 2
E 272 275 1
E 272 279 2
E 273 299 10
E 274 278 1
E 274 302 12
E 275 280 2
E 275 281 2
E 276 282 2
E 278 280 1
E 278 306 14
E 279 281 1
E 279 284 2
E 280 287 2
E 280 309 14
E 281 287 2
E 281 288 2
E 282 285 1
E 282 286 1
E 283 295 5
E 283 318 18
E 284 288 1
E 284 289 1
E 287 292 2
E 288 290 1
E 288 292 2
E 289 290 1
E 289 291 1
E 290 293 1
E 291 293 1
E 292 312 12
E 294 299 2
E 295 297 1
E 296 297 1
E 296 302 4
E 297 300 1
E 297 303 4
E 298 321 12
E 300 301 1
E 300 304 4
E 301 305 4
E 301 330 17
E 302 303 1
E 303 304 1
E 304 305 1
E 304 306 1
E 305 308 1
E 305 329 12
E 306 308 1
E 306 309 1
E 307 317 5
E 307 318 5
E 308 310 1
E 309 310 1
E 309 311 2
E 310 313 2
E 311 313 1
E 311 315 2
E 312 314 1
E 312 316 2
E 313 319 2
E 313 344 21
E 314 315 1
E 314 320 2
E 315 319 1
E 315 322 2
E 316 320 1
E 316 321 1
E 317 326 4
E 317 327 5
E 318 327 5
E 318 329 6
E 319 324 2
E 319 339 12
E 320 322 1
E 320 323 1
E 321 323 1
E 321 334 10
E 322 324 1
E 323 338 10
E 324 325 1
E 325 340 10
E 326 331 5
E 326 335 7
E 327 328 1
E 327 331 4
E 328 330 1
E 328 333 4
E 329 332 3
E 329 339 6
E 330 336 4
E 330 337 4
E 331 333 1
E 332 337 2
E 332 342 6
E 333 336 1
E 334 338 1
E 335 346 11
E 336 341 4
E 337 341 4
E 339 342 3
E 341 344 4
E 341 346 7
E 342 343 3
E 343 345 2
E 343 350 10
E 344 366 20
E 345 347 4
E 346 349 6
E 346 353 9
E 348 354 6
E 349 364 9
E 351 354 1
E 353 355 3
E 353 364 6
E 355 356 1
E 355 369 6
E 356 361 1
E 356 366 4
E 357 374 7
E 358 362 1
E 360 367 4
E 361 363 1
E 361 368 4
E 363 365 1
E 364 369 3
E 365 367 2
E 366 368 1
E 366 371 2
E 367 370 1
E 368 373 2
E 369 371 1
E 369 377 3
E 370 372 1
E 370 381 4
E 371 373 1
E 371 379 3
E 372 375 1
E 373 376 1
E 373 382 3
E 375 380 2
E 376 378 1
E 376 383 3
E 377 379 1
E 377 395 10
E 378 386 3
E 379 382 1
E 379 397 10
E 380 384 2
E 380 388 4
E 381 385 2
E 382 383 1
E 382 398 10
E 383 386 1
E 383 399 10
E 385 387 1
E 385 391 3
E 386 390 2
E 386 400 10
E 387 389 1
E 387 393 3
E 388 392 2
E 389 392 2
E 389 394 3
E 390 391 1
E 391 393 1
E 391 401 10
E 392 396 3
E 393 394 1
E 393 402 10
E 394 396 2
E 394 403 10
E 395 397 1
E 396 404 10
E 397 398 1
E 398 399 1
E 399 400 1
E 401 402 1
E 402 403 1
E 403 404 2
E 1 405 100000
E 2 405 100000
E 3 405 100000
E 4 406 100000
E 5 406 100000
E 6 406 100000
E 7 407 100000
E 8 407 100000
E 9 407 100000
E 10 407 100000
E 11 408 100000
E 12 408 100000
E 13 409 100000
E 14 409 100000
E 15 410 100000
E 16 410 100000
E 17 411 100000
E 18 411 100000
E 19 412 100000
E 20 412 100000
E 21 413 100000
E 22 413 100000
E 23 414 100000
E 24 414 100000
E 25 415 100000
E 26 415 100000
E 27 416 100000
E 28 416 100000
E 29 417 100000
E 30 417 100000
E 31 418 100000
E 32 418 100000
E 33 419 100000
E 34 419 100000
E 35 420 100000
E 36 420 100000
E 37 421 100000
E 38 421 100000
E 39 421 100000
E 40 421 100000
E 41 422 100000
E 42 422 100000
E 43 422 100000
E 44 422 100000
E 45 422 100000
E 46 422 100000
E 47 422 100000
E 48 422 100000
E 49 423 100000
E 50 423 100000
E 51 423 100000
E 52 423 100000
E 53 423 100000
E 54 424 100000
E 55 424 100000
E 56 424 100000
E 57 424 100000
E 58 424 100000
E 59 425 100000
E 60 425 100000
E 61 425 100000
E 62 426 100000
E 63 426 100000
E 64 426 100000
E 65 426 100000
E 66 427 100000
E 67 427 100000
E 68 428 100000
E 69 428 100000
E 70 428 100000
E 71 429 100000
E 72 429 100000
E 73 430 100000
E 74 430 100000
E 75 431 100000
E 76 431 100000
E 77 432 100000
E 78 432 100000
E 79 433 100000
E 80 433 100000
E 81 434 100000
E 82 434 100000
E 83 435 100000
E 84 435 100000
E 85 436 100000
E 86 436 100000
E 87 436 100000
E 88 436 100000
E 89 437 100000
E 90 422 100000
E 91 422 100000
E 92 422 100000
E 93 423 100000
E 94 423 100000
E 95 423 100000
E 96 423 100000
E 97 423 100000
E 98 423 100000
E 99 424 100000
E 100 436 100000
E 101 436 100000
E 102 436 100000
E 103 436 100000
E 104 436 100000
END

SECTION Terminals
Terminals 33
T 405
T 406
T 407
T 408
T 409
T 410
T 411
T 412
T 413
T 414
T 415
T 416
T 417
T 418
T 419
T 420
T 421
T 422
T 423
T 424
T 425
T 426
T 427
T 428
T 429
T 430
T 431
T 432
T 433
T 434
T 435
T 436
T 437
END

SECTION Tree Decomposition
c We do not guarantee that this tree decomposition has minimum width.
s td 368 19 437
b 1 437 89
b 2 89 203
b 3 434 82 81
b 4 435 83 84
b 5 408 12 11
b 6 410 16 15
b 7 415 26 25
b 8 416 28 27
b 9 418 32 31
b 10 419 33 34
b 11 413 22 21
b 12 433 79 80
b 13 384 11 380
b 14 431 75 76
b 15 411 18 17
b 16 412 20 19
b 17 409 13 14
b 18 414 23 24
b 19 420 35 36
b 20 38 421 106
b 21 417 29 30
b 22 432 77 78
b 23 430 74 73
b 24 429 71 72
b 25 427 67 66
b 26 39 421 106
b 27 12 404 11
b 28 421 106 37 40
b 29 37 40 105
b 30 105 111
b 31 111 112 76
b 32 404 11 396 403
b 33 425 59 60 61
b 34 112 76 108 113
b 35 406 5 6 4
b 36 11 396 403 380
b 37 62 426 122 63
b 38 75 107 83 76
b 39 107 83 76 84
b 40 83 76 84 81
b 41 355 353 356 369
b 42 357 374 6 18
b 43 362 48 358 104
b 44 388 392 46 380
b 45 348 50 41 354
b 46 397 398 379 395
b 47 22 338 21 340
b 48 109 77 78 121
b 49 26 28 25 24
b 50 402 401 393 403
b 51 405 2 3 1
b 52 428 69 68 70
b 53 115 113 114 119
b 54 120 119 118 64
b 55 32 34 31 276
b 56 128 126 130 64
b 57 131 63 134 59
b 58 133 130 64 65
b 59 35 36 210 202
b 60 139 60 144 143
b 61 9 286 407 276
b 62 146 148 141 142
b 63 147 143 149 73
b 64 157 158 61 69
b 65 10 286 407 285
b 66 286 282 407 285 276
b 67 163 66 165 164
b 68 42 86 358 422
b 69 166 167 164 168
b 70 170 171 200 162
b 71 175 177 70 74
b 72 178 167 181 180
b 73 192 180 229 196
b 74 203 224 207 196
b 75 211 217 188 233
b 76 400 399 386 14
b 77 215 36 33 210
b 78 227 224 230 234
b 79 244 248 240 249
b 80 252 256 246 201
b 81 277 234 54 57
b 82 159 158 70 191
b 83 290 293 289 288
b 84 294 299 30 267
b 85 307 54 317 318
b 86 308 310 306 305
b 87 79 81 80 77
b 88 324 322 325 319
b 89 326 335 331 317
b 90 332 342 337 329
b 91 334 338 24 321
b 92 392 396 389 46 380
b 93 36 33 34 210 202
b 94 282 407 285 276 249
b 95 76 84 108 81 113
b 96 84 108 82 81 113
b 97 108 82 110 81 113
b 98 82 110 81 113 80
b 99 110 81 113 80 114
b 100 81 113 80 114 77
b 101 113 80 114 77 119
b 102 80 114 116 77 119
b 103 114 116 117 77 119
b 104 116 117 77 119 78
b 105 117 77 119 78 118
b 106 77 119 78 118 121
b 107 119 78 118 121 64
b 108 78 118 121 124 64
b 109 118 121 124 126 64
b 110 121 124 126 64 122
b 111 124 125 126 64 122
b 112 398 382 399 379 395
b 113 148 145 141 142 69
b 114 28 25 27 299 24
b 115 401 393 403 391 14
b 116 2 3 16 1 395
b 117 3 16 374 1 395
b 118 177 70 74 72 67
b 119 171 200 174 162 205
b 120 48 358 104 88 422
b 121 5 350 6 340 4
b 122 310 306 305 313 309
b 123 353 364 346 356 369
b 124 396 394 389 403 46 380
b 125 394 389 393 403 46 380
b 126 389 393 403 387 46 380
b 127 426 64 122 63 65
b 128 99 295 58 300 424
b 129 53 88 98 380 423
b 130 20 345 19 350 18
b 131 335 49 331 346 317
b 132 125 126 130 64 122 127
b 133 126 130 64 122 127 129
b 134 33 34 210 202 213 31
b 135 34 210 202 213 31 276
b 136 210 202 213 31 206 276
b 137 202 213 31 206 276 191
b 138 345 343 347 19 350 18
b 139 158 156 61 69 70 191
b 140 156 61 69 154 70 191
b 141 16 374 18 15 1 395
b 142 374 6 18 15 1 395
b 143 130 64 122 127 65 132 129
b 144 64 122 63 127 65 132 129
b 145 122 123 63 127 65 132 129
b 146 123 63 127 65 132 134 129
b 147 63 127 65 132 134 129 59
b 148 127 65 132 134 129 137 59
b 149 65 132 134 129 137 59 61
b 150 132 134 129 137 59 142 61
b 151 134 129 137 59 135 142 61
b 152 129 137 59 135 141 142 61
b 153 137 59 135 138 141 142 61
b 154 59 135 138 60 141 142 61
b 155 135 138 136 60 141 142 61
b 156 138 136 60 141 142 140 61
b 157 136 60 141 142 140 144 61
b 158 60 141 142 140 144 61 143
b 159 344 17 341 366 313
b 160 274 261 302 268 278
b 161 359 103 92 96 102
b 162 363 361 94 365 43
b 163 370 381 367 96 372
b 164 273 27 299 270 267
b 165 272 246 269 275 279
b 166 375 46 98 372 380
b 167 376 383 43 373 378
b 168 390 391 13 386 14
b 169 385 391 387 13 381
b 170 328 327 333 330 58
b 171 339 342 329 4 319
b 172 265 269 238 251 268
b 173 264 254 30 260 267
b 174 85 90 49 41 436
b 175 336 333 52 341 330
b 176 292 288 23 287 312
b 177 311 315 313 309 56
b 178 259 263 266 29 257
b 179 258 250 237 57 261
b 180 304 306 305 300 303
b 181 281 288 275 279 287
b 182 255 250 261 251 268
b 183 284 289 288 262 279
b 184 377 379 1 369 395
b 185 150 140 144 152 151
b 186 153 151 155 149 172
b 187 160 149 73 172 161
b 188 323 338 21 320 321
b 189 338 21 320 340 24 321
b 190 371 379 373 366 369
b 191 169 167 168 181 188
b 192 167 164 168 181 180 188
b 193 245 228 250 221 251
b 194 243 248 240 8 257
b 195 368 361 43 373 366
b 196 241 31 276 249 233
b 197 173 172 72 161 174
b 198 239 247 246 235 236
b 199 176 72 67 183 174
b 200 179 183 165 182 174
b 201 184 181 180 204 199
b 202 185 182 168 188 189
b 203 186 183 182 189 190
b 204 187 67 183 190 191
b 205 193 188 220 189 197
b 206 194 198 189 190 197
b 207 195 206 198 190 191
b 208 301 305 330 58 300
b 209 208 204 205 219 218
b 210 209 213 206 212 198
b 211 280 309 275 278 287
b 212 225 238 218 221 251
b 213 360 367 96 102 95
b 214 223 226 220 7 197
b 215 222 232 226 220 219
b 216 231 238 218 229 235
b 217 216 204 218 199 221
b 218 242 246 269 238 235
b 219 214 213 31 212 233
b 220 253 8 236 29 257
b 221 271 269 268 275 278
b 222 283 237 54 295 318
b 223 71 73 72 161 66
b 224 291 27 293 270 289
b 225 296 297 57 261 302
b 226 298 25 23 24 321
b 227 352 90 87 93 100
b 228 351 90 41 100 354
b 229 316 320 23 312 321
b 230 314 320 315 56 312
b 231 349 364 15 17 346
b 232 407 285 276 249 7 8
b 233 382 399 383 379 373 395
b 234 145 141 142 140 152 69
b 235 141 142 140 144 152 61 69 143
b 236 140 144 152 61 69 151 143
b 237 144 152 61 69 68 151 143
b 238 152 61 69 68 154 151 143
b 239 61 69 68 154 151 143 70 191
b 240 68 154 151 143 149 70 191
b 241 154 151 143 155 149 70 191
b 242 151 143 155 149 70 172 191
b 243 143 155 149 70 73 172 191
b 244 155 149 70 74 73 172 191
b 245 149 70 74 73 172 161 191
b 246 70 74 73 172 72 161 67 191
b 247 73 172 72 161 67 66 191
b 248 172 72 161 67 66 174 191
b 249 72 161 67 66 183 174 191
b 250 161 67 66 183 174 162 191
b 251 67 66 183 174 162 190 191
b 252 224 207 230 228 234 196
b 253 21 322 325 320 340 24 321
b 254 393 403 391 387 46 380 14
b 255 207 230 228 234 196 199 221
b 256 86 358 92 50 422 436
b 257 200 174 162 181 204 205
b 258 343 347 19 350 18 342 4
b 259 25 27 293 299 23 24 321
b 260 364 15 17 1 346 356 369
b 261 285 254 276 249 7 8 30
b 262 399 383 379 386 14 373 395
b 263 347 19 350 18 342 15 17 4
b 264 19 350 18 342 337 15 17 4
b 265 66 183 165 164 174 162 190 191
b 266 383 379 386 14 43 373 378 395
b 267 230 228 234 250 237 196 199 221
b 268 228 234 250 237 196 199 221 251
b 269 213 31 206 212 198 276 191 233
b 270 31 206 212 198 276 249 191 233
b 271 206 212 198 276 249 190 191 233
b 272 358 104 88 103 92 50 422 436
b 273 104 88 103 92 50 98 422 436
b 274 183 165 182 164 174 162 189 190 191
b 275 165 182 164 168 174 162 189 190 191
b 276 182 164 168 174 162 188 189 190 191
b 277 101 102 95 100 354 436
b 278 97 103 96 98 372 423
b 279 256 247 246 201 262 279
b 280 248 240 254 249 8 257 260
b 281 240 254 249 7 233 8 257 260
b 282 263 266 270 29 257 260 267
b 283 297 57 261 295 300 302 303
b 284 322 325 320 315 340 319 24 321
b 285 325 320 315 340 4 319 24 321
b 286 266 270 289 29 257 260 262 267
b 287 350 6 18 342 337 15 17 340 4
b 288 164 168 174 162 181 180 188 189 190 191
b 289 91 92 50 102 354 422
b 290 47 90 49 87 331 422
b 291 44 51 365 43 378 422
b 292 45 387 46 381 372 422
b 293 55 56 302 424 287 312
b 294 217 205 188 220 219 233
b 295 327 333 331 330 58 317 318
b 296 232 226 220 219 229 235 236
b 297 306 305 313 309 300 303 278
b 298 391 387 46 13 381 380 386 14
b 299 387 46 13 381 372 380 386 14 422
b 300 46 13 381 98 372 380 386 14 422
b 301 88 103 92 50 98 380 422 423 436
b 302 234 250 237 54 57 196 199 221 251
b 303 6 18 342 337 15 17 1 395 340 4
b 304 174 162 181 180 204 205 188 189 190 191
b 305 181 180 204 205 188 189 190 191 199
b 306 13 381 51 98 372 380 386 14 378 422
b 307 247 246 201 235 236 29 262 279
b 308 212 198 276 249 7 190 191 233 201
b 309 198 276 249 189 7 190 191 197 233 201
b 310 342 337 15 17 1 395 329 340 4 319
b 311 250 237 54 57 261 196 199 221 251 268
b 312 254 276 249 7 233 8 30 257 260 267
b 313 103 92 50 96 98 372 380 102 422 423 436
b 314 92 50 96 98 372 380 102 354 422 423 436
b 315 50 96 98 372 380 102 41 354 422 423 436
b 316 27 293 299 270 289 23 24 267 321
b 317 293 299 270 289 288 23 24 267 321
b 318 299 270 289 288 23 24 30 267 321
b 319 381 51 367 96 98 372 380 386 14 378 422
b 320 237 54 57 261 295 318 196 199 221 251 268
b 321 361 94 365 43 373 93 356 366
b 322 333 52 87 331 341 330 58 317 318
b 323 226 220 219 7 197 8 229 235 236
b 324 180 204 205 188 189 190 191 229 196 199
b 325 379 386 14 43 373 378 1 366 369 395
b 326 320 315 340 4 319 56 23 24 312 321
b 327 315 340 4 313 319 309 56 23 24 312 321
b 328 305 329 330 313 309 58 300 303 278
b 329 90 49 87 331 41 93 100 354 422 436
b 330 246 269 238 201 235 236 29 262 275 279
b 331 337 15 17 1 341 395 329 330 340 4 319
b 332 94 365 95 43 373 93 100 423 356 366
b 333 270 289 288 29 23 24 30 257 260 262 267 321
b 334 289 288 29 23 24 30 257 260 262 267 279 321
b 335 54 57 261 295 317 318 424 196 199 221 251 268
b 336 204 205 188 219 189 190 191 218 229 196 199 221
b 337 205 188 220 219 189 190 191 233 218 229 196 199 221
b 338 188 220 219 189 190 191 197 233 218 229 196 199 221
b 339 51 367 96 98 372 380 365 386 14 43 378 422 423
b 340 367 96 98 372 380 102 365 95 386 14 43 378 422 423
b 341 96 98 372 380 102 365 95 386 14 43 378 41 354 422 423 436
b 342 102 365 95 386 14 43 378 41 100 354 422 423 436
b 343 49 87 331 41 93 100 354 422 423 436 346 317
b 344 365 95 386 14 43 373 378 41 93 100 354 422 423 436 356 366
b 345 15 17 1 341 346 356 369 395 329 330 340 4 319
b 346 17 1 341 346 356 366 369 395 329 330 340 4 313 319
b 347 52 87 331 93 423 341 356 330 58 317 318
b 348 269 238 201 235 236 29 251 262 268 275 278 279
b 349 57 261 295 300 302 303 317 318 424 196 199 221 251 268
b 350 261 295 300 302 303 317 318 424 196 199 221 251 268 278
b 351 295 58 300 302 303 317 318 424 196 199 221 251 268 278
b 352 87 331 41 93 100 354 422 423 436 341 346 356 330 58 317 318
b 353 386 14 43 373 378 41 93 100 354 422 423 436 1 356 366 369 395
b 354 41 93 100 354 422 423 436 1 341 346 356 366 369 395 330 58 317 318
b 355 1 341 346 356 366 369 395 329 330 340 4 313 319 58 317 318
b 356 329 330 340 4 313 319 309 58 300 303 317 318 278
b 357 288 29 23 24 30 257 260 262 267 275 279 287 312 321
b 358 238 201 218 229 235 236 29 221 251 262 268 275 278 279
b 359 276 249 189 7 190 191 197 233 8 201 30 257 260 267
b 360 220 219 189 7 190 191 197 233 8 218 229 235 236 196 199 221
b 361 340 4 313 319 309 56 58 300 303 317 318 23 24 278 312 321
b 362 309 56 58 300 303 317 318 23 24 275 278 287 312 321
b 363 56 58 300 302 303 317 318 424 23 24 275 278 287 312 321
b 364 58 300 302 303 317 318 424 23 24 196 199 221 251 268 275 278 287 312 321
b 365 189 7 190 191 197 233 8 201 218 229 235 236 30 196 199 221 257 260 267
b 366 8 201 218 229 235 236 29 30 196 199 221 257 260 267
b 367 201 218 229 235 236 29 30 196 199 221 251 257 260 262 267 268 275 278 279
b 368 29 23 24 30 196 199 221 251 257 260 262 267 268 275 278 279 287 312 321
1 2
2 74
74 252
252 255
255 267
267 268
268 302
302 311
311 320
320 335
335 349
349 350
350 351
351 364
364 363
363 362
364 368
368 367
368 357
367 358
367 366
366 365
365 360
362 361
365 359
360 338
338 337
337 336
358 348
357 334
334 333
361 356
361 327
336 324
348 330
356 355
355 346
346 345
355 354
354 352
354 353
353 344
344 342
342 341
341 340
340 339
352 343
345 331
352 347
339 319
341 315
315 314
314 313
327 326
353 325
344 332
343 329
331 310
319 306
359 312
359 309
333 318
356 328
324 305
347 322
313 301
310 303
306 300
309 308
318 317
305 304
303 287
300 299
317 316
304 288
288 276
276 275
275 274
360 323
333 286
330 307
326 285
325 266
332 321
312 281
301 273
308 271
287 264
299 298
274 265
285 284
273 272
271 270
264 263
270 269
349 283
345 260
312 261
328 297
322 295
316 259
323 296
286 282
266 262
281 280
265 251
284 253
263 258
251 250
250 249
249 248
248 247
247 246
246 245
245 244
244 243
243 242
242 241
241 240
240 239
239 238
238 237
237 236
236 235
235 158
158 157
157 156
156 155
155 154
154 153
153 152
152 151
151 150
150 149
149 148
148 147
147 146
146 145
145 144
144 143
143 133
337 294
133 132
342 277
363 293
339 291
314 289
313 278
329 290
303 142
142 141
304 257
299 292
288 192
307 279
298 254
254 126
126 125
125 124
272 256
269 137
137 136
136 135
135 134
253 189
258 138
261 232
239 140
140 139
235 234
262 233
132 111
111 110
141 117
257 119
192 191
254 115
124 92
336 209
336 217
144 127
350 160
134 93
189 188
138 130
234 113
233 112
348 172
110 109
117 116
348 221
334 183
268 193
109 108
108 107
107 106
106 105
105 104
351 128
104 103
103 102
102 101
101 100
327 177
100 99
99 98
98 97
97 96
96 95
330 165
330 218
346 159
260 231
340 213
343 131
362 211
307 198
319 163
313 161
326 229
326 230
325 184
325 190
311 182
329 174
329 227
329 228
310 171
312 173
311 179
309 206
328 208
305 201
322 175
301 129
357 176
357 181
300 166
358 212
358 216
287 121
320 222
316 164
316 224
276 202
366 220
274 200
274 203
323 214
266 167
321 162
321 195
271 207
298 168
298 169
272 120
270 196
269 210
269 219
260 123
297 122
297 180
283 225
295 170
259 114
259 226
296 215
282 178
280 194
251 204
249 199
248 197
247 223
246 118
245 187
242 186
232 94
94 66
236 185
338 205
142 42
192 69
192 72
279 80
124 36
256 68
135 55
189 47
189 91
139 64
139 82
119 70
115 50
92 44
127 37
93 59
93 77
113 62
112 46
107 54
106 48
101 53
116 51
100 87
95 34
95 40
131 89
252 78
132 56
324 73
121 35
120 43
123 41
147 57
122 86
114 49
118 71
143 58
66 61
36 32
40 39
39 38
294 75
302 81
315 45
310 90
318 84
317 83
265 67
284 88
335 85
262 76
280 79
243 63
239 52
66 65
158 60
154 33
141 6
333 21
134 10
96 3
130 16
334 18
104 22
40 4
59 19
114 8
49 7
55 9
32 27
27 5
87 12
34 31
38 14
47 11
36 13
223 24
306 17
303 15
247 25
246 23
31 30
30 29
29 28
28 20
28 26
END

EOF
